dates = {'2021-12-24','2021-12-25','2021-12-26','2021-12-27','2021-12-28','2021-12-29','2021-12-30','2021-12-31','2022-01-01','2022-01-02'};

daysOfWeek = [Friday,Saturday,Sunday,Monday,Tuesday,Wednesday,Thursday,Friday,Saturday,Sunday];

% For this week, how many people will be here.
numPeople = [152,152,152,152,161,161,164,164,164,164];

% Physical workers need 50 to 100 % more nutrients per day.
numPhysicalWorkers = [56.0,55.0,55.0,55.0,58.5,58.5,58.5,58.5,58.5,58.5];

% Males need +25% more nutrients per day.
numMen = [128,127,127,127,136,135,137,137,137,137];

% Num people who do not eat categories. contains = {none, meat, milk, gluten, egg, nut, seed, sugars}
numRefusals = [| 0,3,3,3,0,0,0,0 | 0,3,3,3,0,0,0,0 | 0,3,3,3,0,0,0,0 | 0,3,3,3,0,0,0,0 | 0,0,22,5,0,1,0,1 | 0,0,22,5,0,1,0,1 | 0,2,0,13,0,8,2,0 | 0,2,0,13,0,8,2,0 | 0,2,0,13,0,8,2,0 | 0,2,0,13,0,8,2,0 |];

